decision_x1=[0,4];
decision_x2=[0,4];
decision_x3=[0,4];
decision_x4=[0,4];
decision_x5=[0,4];
decision_x6=[0,4];
decision_x7=[0,4];
decision_x8=[0,4];
decision_x9=[0,4];
decision_x10=[0,4];
random_y1=[0,4];
random_y2=[0,4];
constraint_x3_x1=[
0,1,6.3|
0,2,4.3|
0,3,8.1|
0,4,0.08|
1,0,8.1|
1,2,5.7|
1,3,5|
1,4,6.1|
2,0,1.3|
2,1,8.8|
2,3,1|
2,4,2.9|
3,0,7.1|
3,1,0.22|
3,2,7.2|
3,4,9|
4,0,0.47|
4,1,2|
4,2,2|
4,3,4.5|
];
constraint_x4_x1=[
0,1,3.3|
0,2,4.1|
0,3,3.4|
0,4,3.3|
1,0,5.3|
1,2,7|
1,3,9.5|
1,4,1.4|
2,0,0.037|
2,1,9.6|
2,3,7.9|
2,4,6|
3,0,7.7|
3,1,7.7|
3,2,2.9|
3,4,7.2|
4,0,9.8|
4,1,9|
4,2,6.2|
4,3,3.5|
];
constraint_x4_x2=[
0,1,5.9|
0,2,2.6|
0,3,1.5|
0,4,0.32|
1,0,8.7|
1,2,6.6|
1,3,7.8|
1,4,2.9|
2,0,7.1|
2,1,8.2|
2,3,6.4|
2,4,9.4|
3,0,8.8|
3,1,1.2|
3,2,7.2|
3,4,7.2|
4,0,5|
4,1,5.2|
4,2,9.9|
4,3,9.5|
];
constraint_x5_x1=[
0,1,9|
0,2,9.2|
0,3,3.3|
0,4,5|
1,0,2.5|
1,2,5.3|
1,3,1.4|
1,4,6.2|
2,0,5.2|
2,1,8.2|
2,3,6.3|
2,4,5.5|
3,0,4.2|
3,1,2.5|
3,2,6|
3,4,2.8|
4,0,1.1|
4,1,2.4|
4,2,4.9|
4,3,5.1|
];
constraint_x5_x3=[
0,1,9.7|
0,2,3.7|
0,3,1.3|
0,4,7.4|
1,0,6|
1,2,8.9|
1,3,3.5|
1,4,3.2|
2,0,0.72|
2,1,2.3|
2,3,5.7|
2,4,9.9|
3,0,0.94|
3,1,1.8|
3,2,6.1|
3,4,2.5|
4,0,3.9|
4,1,8.1|
4,2,9.5|
4,3,1.7|
];
constraint_x6_x2=[
0,1,6.6|
0,2,3.2|
0,3,8.8|
0,4,7.3|
1,0,5.8|
1,2,8.7|
1,3,3|
1,4,1.1|
2,0,0.63|
2,1,5.1|
2,3,2|
2,4,9.6|
3,0,1.9|
3,1,1.6|
3,2,5.3|
3,4,2.5|
4,0,3.6|
4,1,6.6|
4,2,9.1|
4,3,5.5|
];
constraint_x6_x3=[
0,1,7.9|
0,2,1.4|
0,3,7.7|
0,4,9.5|
1,0,9.6|
1,2,1.1|
1,3,8.6|
1,4,6.5|
2,0,0.64|
2,1,0.63|
2,3,2.6|
2,4,4.3|
3,0,3.9|
3,1,4.2|
3,2,8.7|
3,4,3.9|
4,0,9.6|
4,1,6.7|
4,2,8.9|
4,3,6.9|
];
constraint_x6_x5=[
0,1,1|
0,2,2.4|
0,3,1.8|
0,4,5.5|
1,0,5.6|
1,2,7.2|
1,3,8.3|
1,4,0.97|
2,0,6.2|
2,1,5.3|
2,3,0.00085|
2,4,0.49|
3,0,5.4|
3,1,5.6|
3,2,1|
3,4,9.5|
4,0,9.6|
4,1,6.7|
4,2,5.1|
4,3,4.8|
];
constraint_x7_x2=[
0,1,8.5|
0,2,2.3|
0,3,2.3|
0,4,0.44|
1,0,7.5|
1,2,7.6|
1,3,5.3|
1,4,2.5|
2,0,8.2|
2,1,4.2|
2,3,0.59|
2,4,5.9|
3,0,5.5|
3,1,5.3|
3,2,3.2|
3,4,3.5|
4,0,9.1|
4,1,1.1|
4,2,3.7|
4,3,4.7|
];
constraint_x7_x5=[
0,1,7.5|
0,2,5|
0,3,9.7|
0,4,3.3|
1,0,2.1|
1,2,2.5|
1,3,1.9|
1,4,4.1|
2,0,2.5|
2,1,2.3|
2,3,3.6|
2,4,3.4|
3,0,0.14|
3,1,7.6|
3,2,3.2|
3,4,2.1|
4,0,9.4|
4,1,8.1|
4,2,1|
4,3,2.2|
];
constraint_x7_x6=[
0,1,6.2|
0,2,6.5|
0,3,6.6|
0,4,4.1|
1,0,3.5|
1,2,2.1|
1,3,5|
1,4,6.9|
2,0,2.1|
2,1,9|
2,3,3.6|
2,4,2.2|
3,0,5.9|
3,1,7.4|
3,2,5.1|
3,4,6.5|
4,0,6.9|
4,1,9.3|
4,2,5.4|
4,3,6.7|
];
constraint_x8_x3=[
0,1,3.6|
0,2,8.4|
0,3,6.9|
0,4,5.3|
1,0,8.7|
1,2,1.5|
1,3,4.5|
1,4,2.3|
2,0,3.2|
2,1,0.6|
2,3,9.8|
2,4,4.7|
3,0,9.3|
3,1,6.8|
3,2,2.3|
3,4,4.7|
4,0,9|
4,1,9.5|
4,2,8.9|
4,3,1.8|
];
constraint_x8_x7=[
0,1,9.7|
0,2,1.6|
0,3,8.7|
0,4,1.5|
1,0,3.9|
1,2,8.4|
1,3,8.8|
1,4,6.9|
2,0,2.7|
2,1,2.7|
2,3,2|
2,4,3.2|
3,0,3.6|
3,1,8.2|
3,2,0.4|
3,4,7.2|
4,0,0.59|
4,1,1.2|
4,2,7.5|
4,3,9.7|
];
constraint_x9_x2=[
0,1,7.9|
0,2,4.6|
0,3,8.9|
0,4,3.8|
1,0,4|
1,2,3.8|
1,3,7.4|
1,4,4.5|
2,0,7.2|
2,1,9.4|
2,3,3.7|
2,4,9.9|
3,0,4.8|
3,1,0.065|
3,2,2.5|
3,4,1.5|
4,0,3.7|
4,1,2|
4,2,1.9|
4,3,0.32|
];
constraint_x9_x3=[
0,1,4.4|
0,2,4.6|
0,3,2.7|
0,4,2.9|
1,0,1.8|
1,2,0.69|
1,3,7.1|
1,4,6.6|
2,0,9.3|
2,1,0.4|
2,3,8.9|
2,4,4.4|
3,0,1.4|
3,1,1.1|
3,2,5.3|
3,4,5.1|
4,0,6.4|
4,1,6.6|
4,2,10|
4,3,7|
];
constraint_x9_x6=[
0,1,4.7|
0,2,1.7|
0,3,0.72|
0,4,1.1|
1,0,8.5|
1,2,1.4|
1,3,0.95|
1,4,3.8|
2,0,1.7|
2,1,7.5|
2,3,0.15|
2,4,2.8|
3,0,8.1|
3,1,5|
3,2,9.1|
3,4,9.6|
4,0,3.1|
4,1,4.8|
4,2,6|
4,3,8.2|
];
constraint_x9_x8=[
0,1,4.8|
0,2,6|
0,3,2.1|
0,4,6.3|
1,0,8.7|
1,2,6.6|
1,3,1|
1,4,1.6|
2,0,1.4|
2,1,9.3|
2,3,4.6|
2,4,0.92|
3,0,9.3|
3,1,5|
3,2,4.6|
3,4,6.3|
4,0,0.84|
4,1,3.8|
4,2,6.7|
4,3,0.1|
];
constraint_x10_x2=[
0,1,8|
0,2,3.3|
0,3,2.3|
0,4,1.6|
1,0,0.04|
1,2,5.2|
1,3,9.7|
1,4,4|
2,0,6.3|
2,1,6.2|
2,3,9.6|
2,4,7.9|
3,0,7.3|
3,1,0.5|
3,2,4.9|
3,4,3.2|
4,0,0.48|
4,1,4.7|
4,2,1.2|
4,3,9|
];
constraint_x10_x4=[
0,1,4.3|
0,2,5.7|
0,3,1|
0,4,4.4|
1,0,5|
1,2,3.3|
1,3,9.6|
1,4,4|
2,0,1.7|
2,1,4.8|
2,3,0.53|
2,4,7.5|
3,0,3.1|
3,1,8.4|
3,2,1.6|
3,4,8.2|
4,0,8.5|
4,1,8.7|
4,2,2.9|
4,3,8|
];
constraint_x10_x5=[
0,1,7.4|
0,2,2.5|
0,3,5.1|
0,4,7.9|
1,0,4.2|
1,2,6.9|
1,3,1.2|
1,4,7.3|
2,0,1.5|
2,1,6.2|
2,3,1.6|
2,4,1.4|
3,0,2.6|
3,1,6.5|
3,2,0.053|
3,4,5.1|
4,0,0.25|
4,1,4.7|
4,2,7.3|
4,3,9.3|
];
constraint_x10_x6=[
0,1,8|
0,2,9|
0,3,1.9|
0,4,1.3|
1,0,2.8|
1,2,4.4|
1,3,4.5|
1,4,8.2|
2,0,7|
2,1,5.4|
2,3,10|
2,4,8.5|
3,0,0.46|
3,1,2.5|
3,2,2.1|
3,4,6.7|
4,0,5.2|
4,1,7.9|
4,2,5.2|
4,3,8.5|
];
constraint_x10_x7=[
0,1,9.2|
0,2,7.7|
0,3,7.4|
0,4,2.7|
1,0,1.1|
1,2,8.1|
1,3,6.7|
1,4,4.7|
2,0,0.23|
2,1,8.5|
2,3,3.3|
2,4,5|
3,0,2|
3,1,9.3|
3,2,8.1|
3,4,8.5|
4,0,3.7|
4,1,3|
4,2,7.2|
4,3,1.9|
];
constraint_x10_x9=[
0,1,7.8|
0,2,8.4|
0,3,8.4|
0,4,3.9|
1,0,3|
1,2,7.5|
1,3,9|
1,4,0.53|
2,0,0.18|
2,1,6.2|
2,3,6.1|
2,4,6.9|
3,0,2.3|
3,1,0.45|
3,2,3.4|
3,4,1.6|
4,0,2.9|
4,1,9.6|
4,2,5.1|
4,3,5.2|
];
constraint_x1_y1=[
0,0,6.4|
0,1,2.6|
0,2,9.5|
0,3,5.9|
0,4,5.9|
1,0,5.3|
1,1,1.5|
1,2,0.45|
1,3,6|
1,4,7.9|
2,0,2.1|
2,1,0.57|
2,2,6.4|
2,3,1.4|
2,4,2.7|
3,0,2|
3,1,4.4|
3,2,6.4|
3,3,8.6|
3,4,7.1|
4,0,5.3|
4,1,2.8|
4,2,8.5|
4,3,0.94|
4,4,4.7|
];
constraint_x2_y2=[
0,0,0.14|
0,1,7.8|
0,2,0.12|
0,3,6.8|
0,4,4.7|
1,0,0.22|
1,1,6.2|
1,2,3.9|
1,3,7.4|
1,4,2|
2,0,2.5|
2,1,6.7|
2,2,7|
2,3,5.6|
2,4,7.4|
3,0,5.3|
3,1,9.9|
3,2,3.5|
3,3,0.68|
3,4,0.5|
4,0,2.9|
4,1,8|
4,2,9.8|
4,3,2.8|
4,4,3.6|
];
initial_distribution_y1=[0.14,0.05,0.24,0.26,0.31];
initial_distribution_y2=[0.29,0.24,0.16,0.0077,0.31];
transition_y1=[
0.023,0.38,0.25,0.27,0.073|
0.2,0.23,0.23,0.11,0.22|
0.27,0.076,0.39,0.11,0.15|
0.19,0.12,0.24,0.16,0.28|
0.1,0.083,0.25,0.26,0.3|
];
transition_y2=[
0.19,0.24,0.047,0.28,0.24|
0.31,0.21,0.28,0.12,0.08|
0.18,0.39,0.031,0.16,0.23|
0.24,0.088,0.44,0.19,0.049|
0.077,0.14,0.45,0.24,0.096|
];
